Version identifier: 20.1.0.0 | 2020-11-10 | 9bedb6d68
CPXPARAM_Threads                                 1
CPXPARAM_TimeLimit                               7200
CPXPARAM_MIP_Tolerances_MIPGap                   0
Generic callback                                 0x60
1 of 1 MIP starts provided solutions.
MIP start 'm1' defined initial solution with objective 2658.6039.
Tried aggregator 1 time.
Reduced MIP has 1 rows, 501 columns, and 500 nonzeros.
Reduced MIP has 500 binaries, 0 generals, 0 SOSs, and 0 indicators.
Presolve time = 0.00 sec. (0.15 ticks)
Probing time = 0.00 sec. (0.05 ticks)
Tried aggregator 1 time.
Reduced MIP has 1 rows, 501 columns, and 500 nonzeros.
Reduced MIP has 500 binaries, 0 generals, 0 SOSs, and 0 indicators.
Presolve time = 0.00 sec. (0.15 ticks)
Probing time = 0.00 sec. (0.05 ticks)
MIP emphasis: balance optimality and feasibility.
MIP search method: dynamic search.
Parallel mode: none, using 1 thread.
Root relaxation solution time = 0.00 sec. (0.10 ticks)

        Nodes                                         Cuts/
   Node  Left     Objective  IInf  Best Integer    Best Bound    ItCnt     Gap

*     0+    0                         2658.6039     5432.0000           104.32%
      0     0     3253.7045     2     2658.6039     5432.0000        0  104.32%
      0     0     3031.5255     3     2658.6039 UserPurge2: 1       16   14.03%
      0     0     2991.7015     4     2658.6039 UserPurge2: 1       23   12.53%
*     0+    0                         2698.9199     2991.7015            10.85%
      0     0     2888.1572     3     2698.9199 UserPurge2: 1       40    7.01%
      0     0     2813.3978     3     2698.9199 UserPurge2: 1       53    4.24%

Repeating presolve.
Tried aggregator 1 time.
MIP Presolve eliminated 0 rows and 184 columns.
Reduced MIP has 1 rows, 317 columns, and 316 nonzeros.
Reduced MIP has 316 binaries, 0 generals, 0 SOSs, and 0 indicators.
Presolve time = 0.00 sec. (0.13 ticks)
Probing time = 0.00 sec. (0.03 ticks)
Tried aggregator 1 time.
Reduced MIP has 1 rows, 317 columns, and 316 nonzeros.
Reduced MIP has 316 binaries, 0 generals, 0 SOSs, and 0 indicators.
Presolve time = 0.00 sec. (0.10 ticks)
Represolve time = 0.00 sec. (0.86 ticks)
Probing time = 0.00 sec. (0.03 ticks)
MIP emphasis: balance optimality and feasibility.
MIP search method: dynamic search.
Parallel mode: none, using 1 thread.
Root relaxation solution time = 0.00 sec. (0.35 ticks)

        Nodes                                         Cuts/
   Node  Left     Objective  IInf  Best Integer    Best Bound    ItCnt     Gap

*     0+    0                         2698.9199     2813.3978             4.24%
      0     0     2813.3978     3     2698.9199     2813.3978       67    4.24%
      0     0     2803.2107     4     2698.9199 UserPurge2: 1       70    3.86%
      0     0     2767.9036     3     2698.9199 UserPurge2: 1       78    2.56%
      0     0     2765.9757     4     2698.9199 UserPurge2: 1       81    2.48%
      0     0     2755.6455     4     2698.9199 UserPurge2: 1       95    2.10%
      0     0     2754.2933     5     2698.9199 UserPurge2: 1      100    2.05%
      0     0     2753.5163     6     2698.9199 UserPurge2: 1      103    2.02%
      0     0     2745.7511     4     2698.9199 UserPurge2: 1      115    1.74%
*     0+    0                         2699.1247     2745.7511             1.73%
      0     0     2738.7821     5     2699.1247 UserPurge2: 1      118    1.47%
*     0+    0                         2706.8373     2738.7821             1.18%
      0     0     2735.9789     5     2706.8373 UserPurge2: 1      126    1.08%
*     0+    0                         2713.0205     2735.9789             0.85%
      0     0     2735.4287     6     2713.0205 UserPurge2: 1      130    0.83%
      0     0     2734.0695     6     2713.0205 UserPurge2: 1      137    0.78%
      0     0     2733.1670     7     2713.0205 UserPurge2: 1      141    0.74%
      0     0     2726.8076     7     2713.0205 UserPurge2: 1      154    0.51%
      0     0     2724.5025     8     2713.0205 UserPurge2: 1      166    0.42%
      0     0     2723.7091     8     2713.0205 UserPurge2: 1      170    0.39%
      0     0     2720.5770     8     2713.0205 UserPurge2: 1      181    0.28%
*     0+    0                         2716.0000     2720.5770             0.17%
      0     0     2719.6608     7     2716.0000 UserPurge2: 1      187    0.13%
      0     0     2718.4089     7     2716.0000 UserPurge2: 1      192    0.09%
      0     0     2716.8244     6     2716.0000 UserPurge2: 1      196    0.03%
      0     0     2716.0241     3     2716.0000 UserPurge2: 1      201    0.00%
      0     0     2716.0241     3     2716.0000     2716.0000      201    0.00%
Elapsed time = 18.39 sec. (17.28 ticks, tree = 0.01 MB, solutions = 6)

User cuts applied:  3

Root node processing (before b&c):
  Real time             =   18.39 sec. (17.31 ticks)
Sequential b&c:
  Real time             =    0.00 sec. (0.01 ticks)
                          ------------
Total (root+branch&cut) =   18.39 sec. (17.32 ticks)
@Parameters: 
is_S_cut                                true
is_add_all_yinF                         true
is_start_value                          true
is_usercut                              true
is_visualization                        false
uc_only_rootnode                        false

data                                    Qi
fn                                      data/Qi/instance_1000_500.csv
mode                                    NewSubmodular
solver                                  cplex

p                                       2
r                                       2

EPS                                     1.0e-06
EPS_vio                                 1.0e-04
beta                                    0.10
gap                                     0.00
nodelimit                               Inf
timelimit                               7200.00


@PrintInfos
ItCnt: 201
Current gap: 0.00 %
Termination Status: OPTIMAL
Primal Status: FEASIBLE_POINT
Solve Time: 18.39 sec
Objective Value: 2716.000000
Number of Nodes:      1

CutInfo: [phase] num / time (sec) 
ZLP             [phase1]     0 / 0.00 [rLC]     0 / 0.00 [rUC]     0 / 0.00 [sLC]     0 / 0.00 [sUC]     0 / 0.00 
OldSubmodular   [phase1]     0 / 0.00 [rLC]     0 / 0.00 [rUC]     0 / 0.00 [sLC]     0 / 0.00 [sUC]     0 / 0.00 
NewSubmodular   [phase1]     0 / 0.00 [rLC]    12 / 14.01 [rUC]    26 / 2.33 [sLC]     0 / 0.00 [sUC]     0 / 0.00 
PMP             [phase1]     0 / 0.00 [rLC]     7 / 11.78 [rUC]     0 / 0.00 [sLC]     0 / 0.00 [sUC]     0 / 0.00 
Separation Round: [phase1] 0  [rLC] 18  [rUC] 26  [sLC] 0  [sUC] 0
Root Best Bound 2716.000000
Root Best Integer: 2716.000000
Best Bound: 2716.000000
Best Integer: 2716.000000

